# Fcc Cu oriented X=[111] Y=[11-2] Z=[-110].
1.000000
     62.61363669        0.00000000        0.00000000
      0.00000000       61.98433794        0.00000000
      0.00000000        0.00000000       10.22476406
 Cu
  3360
Cartesian
      0.00000000        0.00000000       -0.95851110
      4.17424265        2.95163529       -0.96781748
      2.08712101        1.47581733       -0.96287380
      0.00000000        2.21372662        0.33502605
      2.08712101        3.68954395        0.33149636
      4.17424265        0.73790867        0.29447985
      6.26136367        0.00000000       -1.00524799
     10.43560632        2.95163529       -1.02256291
      8.34848468        1.47581733       -1.01332197
      6.26136367        2.21372662        0.28801586
      8.34848468        3.68954395        0.28062151
     10.43560632        0.73790867        0.24064616
     12.52272734        0.00000000       -1.06233479
     16.69696999        2.95163529       -1.09048438
     14.60984835        1.47581733       -1.07542494
     12.52272734        2.21372662        0.22949268
     14.60984835        3.68954395        0.21662983
     16.69696999        0.73790867        0.17527260
     18.78409101        0.00000000       -1.13056136
     22.95833366        2.95163529       -1.17173761
     20.87121202        1.47581733       -1.14975723
     18.78409101        2.21372662        0.15807976
     20.87121202        3.68954395        0.13825599
     22.95833366        0.73790867        0.09870210
     25.04545468        0.00000000       -1.20861496
     29.21969733        2.95163529       -1.26255315
     27.13257569        1.47581733       -1.23401154
     25.04545468        2.21372662        0.07484722
     27.13257569        3.68954395        0.04772531
     29.21969733        0.73790867        0.01437765
     31.30681834        0.00000000        1.26406826
     35.48106100        2.95163529        1.20127246
     33.39393936        1.47581733        1.23401154
     31.30681834        2.21372662        2.54105734
     33.39393936        3.68954395        2.50846570
     35.48106100        0.73790867        2.48500825
     37.56818201        0.00000000        1.18171064
     41.74242467        2.95163529        1.11617553
     39.65530303        1.47581733        1.14975734
     37.56818201        2.21372662        2.45251088
     39.65530303        3.68954395        2.41793503
     41.74242467        0.73790867        2.40529415
     43.82954568        0.00000000        1.10660423
     48.00378834        2.95163529        1.04367326
     45.91666670        1.47581733        1.07542494
     43.82954568        2.21372662        2.37286836
     45.91666670        3.68954395        2.33956119
     48.00378834        0.73790867        2.33602076
     50.09090935        0.00000000        1.04207728
     54.26515201        2.95163529        0.98470950
     52.17803037        1.47581733        1.01332197
     50.09090935        2.21372662        2.30579513
     52.17803037        3.68954395        2.27556960
     54.26515201        0.73790867        2.27843908
     56.35227302        0.00000000        0.98859246
     60.52651568        2.95163529        0.93766659
     58.43939404        1.47581733        0.96287380
     56.35227302        2.21372662        2.25132812
     58.43939404        3.68954395        2.22469466
     60.52651568        0.73790867        2.23158431
      0.00000000        4.42745262       -0.92646015
      4.17424265        7.37908791       -0.93190688
      2.08712101        5.90327058       -0.92899752
      0.00000000        6.64117924        0.36948790
      2.08712101        8.11699658        0.36812126
      4.17424265        5.16536129        0.32747312
      6.26136367        4.42745262       -0.97346461
     10.43560632        7.37908791       -0.98755628
      8.34848468        5.90327058       -0.97997431
      6.26136367        6.64117924        0.32284590
      8.34848468        8.11699658        0.31746911
     10.43560632        5.16536129        0.27208649
     12.52272734        4.42745262       -1.03323143
     16.69696999        7.37908791       -1.06031959
     14.60984835        5.90327058       -1.04566750
     12.52272734        6.64117924        0.26213432
     14.60984835        8.11699658        0.25039588
     16.69696999        5.16536129        0.20166476
     18.78409101        4.42745262       -1.10794143
     22.95833366        7.37908791       -1.15234308
     20.87121202        5.90327058       -1.12833564
     18.78409101        6.64117924        0.18408870
     20.87121202        8.11699658        0.16323959
     22.95833366        5.16536129        0.11526673
     25.04545468        4.42745262       -1.19699503
     29.21969733        7.37908791       -1.25954881
     27.13257569        5.90327058       -1.22607671
     25.04545468        6.64117924        0.08847591
     27.13257569        8.11699658        0.05715551
     29.21969733        5.16536129        0.01691217
     31.30681834        4.42745262        1.26166605
     35.48106100        7.37908791        1.18685881
     33.39393936        5.90327058        1.22607671
     31.30681834        6.64117924        2.53822314
     33.39393936        8.11699658        2.49903550
     35.48106100        5.16536129        2.47277064
     37.56818201        4.42745262        1.16595561
     41.74242467        7.37908791        1.08887838
     39.65530303        5.90327058        1.12833564
     37.56818201        6.64117924        2.43413341
     39.65530303        8.11699658        2.39295143
     41.74242467        5.16536129        2.38161759
     43.82954568        4.42745262        1.08132544
     48.00378834        7.37908791        1.00973175
     45.91666670        5.90327058        1.04566750
     43.82954568        6.64117924        2.34403841
     45.91666670        8.11699658        2.30579513
     48.00378834        5.16536129        2.30579513
     50.09090935        4.42745262        1.01172599
     54.26515201        7.37908791        0.94879512
     52.17803037        5.90327058        0.97997431
     50.09090935        6.64117924        2.27202908
     52.17803037        8.11699658        2.23872191
     54.26515201        5.16536129        2.24567403
     56.35227302        4.42745262        0.95651686
     60.52651568        7.37908791        0.90236835
     58.43939404        5.90327058        0.92899752
     56.35227302        6.64117924        2.21641740
     58.43939404        8.11699658        2.18806975
     60.52651568        5.16536129        2.19874656
      0.00000000        8.85490524       -0.88944364
      4.17424265       11.80654053       -0.88944364
      2.08712101       10.33072320       -0.88944364
      0.00000000       11.06863186        0.40918248
      2.08712101       12.54444920        0.41075873
      4.17424265        9.59281391        0.36654501
      6.26136367        8.85490524       -0.93527635
     10.43560632       11.80654053       -0.94391065
      8.34848468       10.33072320       -0.93922372
      6.26136367       11.06863186        0.36470680
      8.34848468       12.54444920        0.36253578
     10.43560632        9.59281391        0.31114714
     12.52272734        8.85490524       -0.99649221
     16.69696999       11.80654053       -1.02013013
     14.60984835       10.33072320       -1.00716901
     12.52272734       11.06863186        0.30361077
     14.60984835       12.54444920        0.29447985
     16.69696999        9.59281391        0.23636863
     18.78409101        8.85490524       -1.07778768
     22.95833366       11.80654053       -1.12470585
     20.87121202       10.33072320       -1.09888239
     18.78409101       11.06863186        0.21935646
     20.87121202       12.54444920        0.19837709
     22.95833366        9.59281391        0.13825599
     25.04545468        8.85490524       -1.18079665
     29.21969733       11.80654053       -1.25510615
     27.13257569       10.33072320       -1.21468674
     25.04545468       11.06863186        0.10803046
     27.13257569       12.54444920        0.07118276
     29.21969733        9.59281391        0.02053061
     31.30681834        8.85490524        1.25827173
     35.48106100       11.80654053        1.16595561
     33.39393936       10.33072320        1.21468674
     31.30681834       11.06863186        2.53408415
     33.39393936       12.54444920        2.48500825
     35.48106100        9.59281391        2.45555500
     37.56818201        8.85490524        1.14426510
     41.74242467       11.80654053        1.05164469
     39.65530303       10.33072320        1.09888239
     37.56818201       11.06863186        2.40818531
     39.65530303       12.54444920        2.35781393
     41.74242467        9.59281391        2.34987910
     43.82954568        8.85490524        1.04823023
     48.00378834       11.80654053        0.96652087
     45.91666670       10.33072320        1.00716901
     43.82954568       11.06863186        2.30579513
     45.91666670       12.54444920        2.26171116
     48.00378834        9.59281391        2.26755186
     50.09090935        8.85490524        0.97407380
     54.26515201       11.80654053        0.90564201
     52.17803037       10.33072320        0.93922372
     50.09090935       11.06863186        2.22997278
     52.17803037       12.54444920        2.19365524
     54.26515201        9.59281391        2.20629611
     56.35227302        8.85490524        0.91852542
     60.52651568       11.80654053        0.86175896
     58.43939404       10.33072320        0.88944364
     56.35227302       11.06863186        2.17510864
     58.43939404       12.54444920        2.14543228
     60.52651568        9.59281391        2.16084969
      0.00000000       13.28235786       -0.84698040
      4.17424265       16.23399315       -0.83966355
      2.08712101       14.75817582       -0.84361093
      0.00000000       15.49608449        0.45445784
      2.08712101       16.97190182        0.45983463
      4.17424265       14.02026715        0.41259694
      6.26136367       13.28235786       -0.88944364
     10.43560632       16.23399315       -0.88944364
      8.34848468       14.75817582       -0.88944364
      6.26136367       15.49608449        0.41476796
      8.34848468       16.97190182        0.41737129
     10.43560632       14.02026715        0.35993245
     12.52272734       13.28235786       -0.94956474
     16.69696999       16.23399315       -0.96526609
     14.60984835       14.75817582       -0.95651686
     12.52272734       15.49608449        0.35675378
     14.60984835       16.97190182        0.35278606
     16.69696999       14.02026715        0.28320143
     18.78409101       13.28235786       -1.03615939
     22.95833366       16.23399315       -1.08268401
     20.87121202       14.75817582       -1.05641904
     18.78409101       15.49608449        0.26894258
     20.87121202       16.97190182        0.25039588
     22.95833366       14.02026715        0.17202204
     25.04545468       13.28235786       -1.15675169
     29.21969733       16.23399315       -1.24786988
     27.13257569       14.75817582       -1.19699503
     25.04545468       15.49608449        0.13825599
     27.13257569       16.97190182        0.09417202
     29.21969733       14.02026715        0.02611609
     31.30681834       13.28235786        1.25311191
     35.48106100       16.23399315        1.13315007
     33.39393936       14.75817582        1.19699503
     31.30681834       15.49608449        2.52747160
     33.39393936       16.97190182        2.46201900
     35.48106100       14.02026715        2.42967347
     37.56818201       13.28235786        1.11274073
     41.74242467       16.23399315        0.99898020
     39.65530303       14.75817582        1.05641904
     37.56818201       15.49608449        2.36920390
     39.65530303       16.97190182        2.30579513
     41.74242467       14.02026715        2.30579513
     43.82954568       13.28235786        1.00375466
     48.00378834       16.23399315        0.91113425
     45.91666670       14.75817582        0.95651686
     43.82954568       15.49608449        2.25377644
     45.91666670       16.97190182        2.20340506
     48.00378834       14.02026715        2.21863883
     50.09090935       13.28235786        0.92706361
     54.26515201       16.23399315        0.85412679
     52.17803037       14.75817582        0.88944364
     50.09090935       15.49608449        2.17745696
     52.17803037       16.97190182        2.13881972
     54.26515201       14.02026715        2.15907938
     56.35227302       13.28235786        0.87368860
     60.52651568       16.23399315        0.81554702
     58.43939404       14.75817582        0.84361093
     56.35227302       15.49608449        2.12658201
     58.43939404       16.97190182        2.09635638
     60.52651568       14.02026715        2.11745109
      0.00000000       17.70981111       -0.79891296
      4.17424265       20.66144577       -0.78239506
      2.08712101       19.18562844       -0.79133099
      0.00000000       19.92353711        0.50521735
      2.08712101       21.39935506        0.51516942
      4.17424265       18.44771977        0.46615660
      6.26136367       17.70981111       -0.83497663
     10.43560632       20.66144577       -0.82237041
      8.34848468       19.18562844       -0.82932254
      6.26136367       19.92353711        0.47369297
      8.34848468       21.39935506        0.48282389
     10.43560632       18.44771977        0.42054996
     12.52272734       17.70981111       -0.88944364
     16.69696999       20.66144577       -0.88944364
     14.60984835       19.18562844       -0.88944364
     12.52272734       19.92353711        0.42451768
     14.60984835       21.39935506        0.42960900
     16.69696999       18.44771977        0.34769474
     18.78409101       17.70981111       -0.97659993
     22.95833366       20.66144577       -1.01332197
     20.87121202       19.18562844       -0.99183381
     18.78409101       19.92353711        0.34092656
     20.87121202       21.39935506        0.33149636
     22.95833366       18.44771977        0.22541229
     25.04545468       17.70981111       -1.11773266
     29.21969733       20.66144577       -1.23401154
     27.13257569       19.18562844       -1.16595561
     25.04545468       19.92353711        0.19027478
     27.13257569       21.39935506        0.13825599
     29.21969733       18.44771977        0.03586592
     31.30681834       17.70981111        1.24432945
     35.48106100       20.66144577        1.07542494
     33.39393936       19.18562844        1.16595561
     31.30681834       19.92353711        2.51523388
     33.39393936       21.39935506        2.41793503
     35.48106100       18.44771977        2.38689571
     37.56818201       17.70981111        1.06356554
     41.74242467       20.66144577        0.92224918
     39.65530303       19.18562844        0.99183381
     37.56818201       19.92353711        2.30579513
     39.65530303       21.39935506        2.22469466
     41.74242467       18.44771977        2.24238636
     43.82954568       17.70981111        0.94265852
     48.00378834       20.66144577        0.84071251
     45.91666670       19.18562844        0.88944364
     43.82954568       19.92353711        2.18191680
     45.91666670       21.39935506        2.12658201
     48.00378834       18.44771977        2.15603536
     50.09090935       17.70981111        0.86854044
     54.26515201       20.66144577        0.79373330
     52.17803037       19.18562844        0.82932254
     50.09090935       19.92353711        2.11255476
     52.17803037       21.39935506        2.07336712
     54.26515201       18.44771977        2.10312456
     56.35227302       17.70981111        0.82138771
     60.52651568       20.66144577        0.76392842
     58.43939404       19.18562844        0.79133099
     56.35227302       19.92353711        2.07053292
     58.43939404       21.39935506        2.04102159
     60.52651568       18.44771977        2.06847079
      0.00000000       22.13726373       -0.74565585
      4.17424265       25.08889839       -0.71856769
      2.08712101       23.61308106       -0.73321977
      0.00000000       24.35098973        0.56067391
      2.08712101       25.82680768        0.57563898
      4.17424265       22.87517239        0.52690786
      6.26136367       22.13726373       -0.77171826
     10.43560632       25.08889839       -0.74272788
      8.34848468       23.61308106       -0.75875714
      6.26136367       24.35098973        0.54093511
      8.34848468       25.82680768        0.55794728
     10.43560632       22.87517239        0.49410232
     12.52272734       22.13726373       -0.81362118
     16.69696999       25.08889839       -0.78705346
     14.60984835       23.61308106       -0.80228734
     12.52272734       24.35098973        0.50836116
     14.60984835       25.82680768        0.52690786
     16.69696999       22.87517239        0.43637718
     18.78409101       22.13726373       -0.88944364
     22.95833366       25.08889839       -0.88944364
     20.87121202       23.61308106       -0.88944364
     18.78409101       24.35098973        0.44580738
     20.87121202       25.82680768        0.45983463
     22.95833366       22.87517239        0.31746911
     25.04545468       22.13726373       -1.04566750
     29.21969733       25.08889839       -1.19699503
     27.13257569       23.61308106       -1.09888239
     25.04545468       24.35098973        0.29447985
     27.13257569       25.82680768        0.25039588
     29.21969733       22.87517239        0.05715551
     31.30681834       22.13726373        1.22607682
     35.48106100       25.08889839        0.95651696
     33.39393936       23.61308106        1.09888239
     31.30681834       24.35098973        2.48500835
     33.39393936       25.82680768        2.30579523
     35.48106100       22.87517239        2.30579513
     37.56818201       22.13726373        0.97997441
     41.74242467       25.08889839        0.81106990
     39.65530303       23.61308106        0.88944364
     37.56818201       24.35098973        2.19365534
     39.65530303       25.82680768        2.09635648
     41.74242467       22.87517239        2.14957127
     43.82954568       22.13726373        0.85840432
     48.00378834       25.08889839        0.75431448
     45.91666670       23.61308106        0.80228734
     43.82954568       24.35098973        2.08411877
     45.91666670       25.82680768        2.02928316
     48.00378834       22.87517239        2.07750611
     50.09090935       22.13726373        0.79712751
     54.26515201       25.08889839        0.72528505
     52.17803037       23.61308106        0.75875714
     50.09090935       24.35098973        2.03486864
     52.17803037       25.82680768        1.99824374
     54.26515201       22.87517239        2.03848708
     56.35227302       22.13726373        0.76176149
     60.52651568       25.08889839        0.70782320
     58.43939404       23.61308106        0.73321977
     56.35227302       24.35098973        2.00767394
     58.43939404       25.82680768        1.98055203
     60.52651568       22.87517239        2.01444212
      0.00000000       26.56471635       -0.68840289
      4.17424265       29.51635164       -0.65055164
      2.08712101       28.04053368       -0.67094585
      0.00000000       28.77844235        0.61922398
      2.08712101       30.25426030        0.63904775
      4.17424265       27.30262502        0.59321504
      6.26136367       26.56471635       -0.70109960
     10.43560632       29.51635164       -0.65418143
      8.34848468       28.04053368       -0.68000489
      6.26136367       28.77844235        0.61406416
      8.34848468       30.25426030        0.63904775
     10.43560632       27.30262502        0.57892665
     12.52272734       26.56471635       -0.72246823
     16.69696999       29.51635164       -0.66115461
     14.60984835       28.04053368       -0.69620326
     12.52272734       28.77844235        0.60528170
     14.60984835       30.25426030        0.63904775
     16.69696999       27.30262502        0.55189146
     18.78409101       26.56471635       -0.76556530
     22.95833366       29.51635164       -0.68000499
     20.87121202       28.04053368       -0.73321977
     18.78409101       28.77844235        0.58702896
     20.87121202       30.25426030        0.63904775
     22.95833366       27.30262502        0.48282389
     25.04545468       26.56471635       -0.88944364
     29.21969733       29.51635164       -0.88944374
     27.13257569       28.04053368       -0.88944364
     25.04545468       28.77844235        0.52690786
     27.13257569       30.25426030        0.63904765
     29.21969733       27.30262502        0.13825599
     31.30681834       26.56471635        1.16595571
     35.48106100       29.51635164        0.69620326
     33.39393936       28.04053368        0.88944374
     31.30681834       28.77844235        2.30579534
     33.39393936       30.25426030        1.91714336
     35.48106100       27.30262502        2.12658201
     37.56818201       26.56471635        0.82932254
     41.74242467       29.51635164        0.66516385
     39.65530303       28.04053368        0.73321977
     37.56818201       28.77844235        1.99824384
     39.65530303       30.25426030        1.91714326
     41.74242467       27.30262502        2.01953344
     43.82954568       26.56471635        0.74707821
     48.00378834       29.51635164        0.65595992
     45.91666670       28.04053368        0.69620326
     43.82954568       28.77844235        1.96122723
     45.91666670       30.25426030        1.91714326
     48.00378834       27.30262502        1.98421659
     50.09090935       26.56471635        0.71389497
     54.26515201       29.51635164        0.65155131
     52.17803037       28.04053368        0.68000489
     50.09090935       28.77844235        1.94736889
     52.17803037       30.25426030        1.91714326
     54.26515201       27.30262502        1.96692334
     56.35227302       26.56471635        0.69620326
     60.52651568       29.51635164        0.64896557
     58.43939404       28.04053368        0.67094585
     56.35227302       28.77844235        1.94013262
     58.43939404       30.25426030        1.91714326
     60.52651568       27.30262502        1.95669715
      0.00000000       30.99216897       -0.62912994
      4.17424265       33.94380426       -0.58189224
      2.08712101       32.46798630       -0.60714966
      0.00000000       33.20589559        0.67860164
      2.08712101       34.68171292        0.70245653
      4.17424265       31.73007764        0.66203701
      6.26136367       30.99216897       -0.62654420
     10.43560632       33.94380426       -0.56420054
      8.34848468       32.46798630       -0.59809062
      6.26136367       33.20589559        0.68882784
      8.34848468       34.68171292        0.72014823
     10.43560632       31.73007764        0.66927328
     12.52272734       30.99216897       -0.62213559
     16.69696999       33.94380426       -0.53101740
     14.60984835       32.46798630       -0.58189224
     12.52272734       33.20589559        0.70612098
     14.60984835       34.68171292        0.75118765
     16.69696999       31.73007764        0.68313172
     18.78409101       30.99216897       -0.61293166
     22.95833366       33.94380426       -0.44877307
     20.87121202       32.46798630       -0.54487573
     18.78409101       33.20589559        0.74143783
     20.87121202       34.68171292        0.81826087
     22.95833366       31.73007764        0.72014823
     25.04545468       30.99216897       -0.58189235
     29.21969733       33.94380426       -0.11213990
     27.13257569       32.46798630       -0.38865197
     25.04545468       33.20589559        0.84848640
     27.13257569       34.68171292        1.02769962
     29.21969733       31.73007764        1.02769952
     31.30681834       30.99216897        0.38865208
     35.48106100       33.94380426        0.38865187
     33.39393936       32.46798630        0.38865197
     31.30681834       33.20589559        1.41635150
     33.39393936       34.68171292        1.52849139
     35.48106100       31.73007764        1.80500347
     37.56818201       30.99216897        0.59809062
     41.74242467       33.94380426        0.51253020
     39.65530303       32.46798630        0.54487573
     37.56818201       33.20589559        1.76091950
     39.65530303       34.68171292        1.73793014
     41.74242467       31.73007764        1.86512457
     43.82954568       30.99216897        0.61694089
     48.00378834       33.94380426        0.55562738
     45.91666670       32.46798630        0.58189224
     43.82954568       33.20589559        1.82998696
     45.91666670       34.68171292        1.80500337
     48.00378834       31.73007764        1.88337720
     50.09090935       30.99216897        0.62391408
     54.26515201       33.94380426        0.57699591
     52.17803037       32.46798630        0.59809062
     50.09090935       33.20589559        1.85702216
     52.17803037       34.68171292        1.83604278
     54.26515201       31.73007764        1.89215977
     56.35227302       30.99216897        0.62754397
     60.52651568       33.94380426        0.58969261
     58.43939404       32.46798630        0.60714966
     56.35227302       33.20589559        1.87131055
     58.43939404       34.68171292        1.85373449
     60.52651568       31.73007764        1.89731949
      0.00000000       35.41962159       -0.57027231
      4.17424265       38.37125688       -0.51633402
      2.08712101       36.89543955       -0.54487573
      0.00000000       37.63334821        0.73634661
      2.08712101       39.10916555        0.76292609
      4.17424265       36.15753026        0.72957843
      6.26136367       35.41962159       -0.55281056
     10.43560632       38.37125688       -0.48096799
      8.34848468       36.89543955       -0.51933847
      6.26136367       37.63334821        0.76039157
      8.34848468       39.10916555        0.79527162
     10.43560632       36.15753026        0.75677313
     12.52272734       35.41962159       -0.52378113
     16.69696999       38.37125688       -0.41969129
     14.60984835       36.89543955       -0.47580827
     12.52272734       37.63334821        0.79941060
     14.60984835       39.10916555        0.84848650
     16.69696999       36.15753026        0.80602316
     18.78409101       35.41962159       -0.46702571
     22.95833366       38.37125688       -0.29812120
     20.87121202       36.89543955       -0.38865187
     18.78409101       37.63334821        0.87147576
     20.87121202       39.10916555        0.94659915
     22.95833366       36.15753026        0.91555973
     25.04545468       35.41962159       -0.32157865
     29.21969733       38.37125688       -0.05201879
     27.13257569       36.89543955       -0.17921322
     25.04545468       37.63334821        1.02769962
     27.13257569       39.10916555        1.13983952
     29.21969733       36.15753026        1.20691275
     31.30681834       35.41962159        0.08110048
     35.48106100       38.37125688        0.23242801
     33.39393936       36.89543955        0.17921312
     31.30681834       37.63334821        1.33525102
     33.39393936       39.10916555        1.41635150
     35.48106100       36.15753026        1.57257536
     37.56818201       35.41962159        0.38865187
     41.74242467       38.37125688        0.38865187
     39.65530303       36.89543955        0.38865187
     37.56818201       37.63334821        1.59556462
     39.65530303       39.10916555        1.60959187
     41.74242467       36.15753026        1.72390289
     43.82954568       35.41962159        0.49104204
     48.00378834       38.37125688        0.46447432
     45.91666670       36.89543955        0.47580817
     43.82954568       37.63334821        1.71447269
     45.91666670       39.10916555        1.70770451
     48.00378834       36.15753026        1.78645677
     50.09090935       35.41962159        0.53536762
     54.26515201       38.37125688        0.50637725
     52.17803037       36.89543955        0.51933847
     50.09090935       37.63334821        1.77219782
     52.17803037       39.10916555        1.76091940
     54.26515201       36.15753026        1.81903062
     56.35227302       35.41962159        0.55952782
     60.52651568       38.37125688        0.53243966
     58.43939404       36.89543955        0.54487573
     56.35227302       37.63334821        1.80500337
     58.43939404       39.10916555        1.79326493
     60.52651568       36.15753026        1.83876942
      0.00000000       39.84707421       -0.51416709
      4.17424265       42.79870950       -0.45670780
      2.08712101       41.32289217       -0.48676451
      0.00000000       42.06080083        0.79037528
      2.08712101       43.53661817        0.81826087
      4.17424265       40.58498288        0.79243741
      6.26136367       39.84707421       -0.48436231
     10.43560632       42.79870950       -0.40955507
      8.34848468       41.32289217       -0.44877297
      6.26136367       42.06080083        0.82502905
      8.34848468       43.53661817        0.86072422
     10.43560632       40.58498288        0.83445925
     12.52272734       39.84707421       -0.43738299
     16.69696999       42.79870950       -0.33543698
     14.60984835       41.32289217       -0.38865187
     12.52272734       42.06080083        0.87793975
     14.60984835       43.53661817        0.92530945
     16.69696999       40.58498288        0.90382129
     18.78409101       39.84707421       -0.35584633
     22.95833366       42.79870950       -0.21453007
     20.87121202       41.32289217       -0.28626180