Cu4
1.0
   3.6150000582154869    0.0000000000000000    0.0000000000000000
  -0.0000000000000001    3.6150000582154869    0.0000000000000000
  -0.0000000000000001   -0.0000000000000001    3.6150000582154873
Cu
4
direct
   0.9999999999957160    0.9999999999957160    0.9999999999957158 Cu
   0.9999999999957160    0.4999999999978580    0.4999999999978579 Cu
   0.4999999999978580    0.9999999999957160    0.4999999999978579 Cu
   0.4999999999978580    0.4999999999978580    0.9999999999957158 Cu
