Cu4 
1.0
3.6150000582154869e+00 0.0000000000000000e+00 0.0000000000000000e+00 
-5.5237580417701144e-17 3.6150000582154869e+00 0.0000000000000000e+00 
-5.7082249151501910e-17 -6.0425711231515829e-17 3.6150000582154873e+00 
Cu 
4 
Cartesian
   3.6150000582    3.6150000582    3.6150000582
   3.6150000582    1.8075000291    1.8075000291
   1.8075000291    3.6150000582    1.8075000291
   1.8075000291    1.8075000291    3.6150000582
