# Fcc Cu oriented X=[-110] Y=[111] Z=[11-2].
1.000000
    127.80955070        0.00000000        0.00000000
      0.00000000      125.22727339        0.00000000
      0.00000000        0.00000000        4.42745271
 Cu
  6000
Cartesian
     -0.85100839       -0.18225202        0.00000000
     -0.87403839        3.97557021        2.95163515
     -0.86223390        1.89682628        1.47581756
      0.43369615       -0.17565755        2.21372635
      0.42259717        1.90347584        3.68954391
      0.41088981        3.98223982        0.73790880
      1.71844542       -0.16897417        0.00000000
      1.69590876        3.98904216        2.95163515
      1.70749598        1.91023561        1.47581756
      3.00322792       -0.16221190        2.21372635
      2.99244974        1.91709681        3.68954391
      2.98100823        3.99596973        0.73790880
      4.28803088       -0.15538325        0.00000000
      4.26617544        4.00301252        2.95163515
      4.27744824        1.92404818        1.47581756
      5.57284150       -0.14849826        2.21372635
      5.56247614        1.93107969        3.68954391
      5.55139761        4.01016049        0.73790880
      6.85764573       -0.14157194        0.00000000
      6.83666195        4.01740113        2.95163515
      6.84752065        1.93817757        1.47581756
      8.14242951       -0.13461932        2.21372635
      8.13256517        1.94532680        3.68954391
      8.12195186        4.02472066        0.73790880
      9.42717622       -0.12765293        0.00000000
      9.40725071        4.03210532        2.95163515
      9.41759562        1.95251359        1.47581756
     10.71187309       -0.12069029        2.21372635
     10.70259284        1.95972042        3.68954391
     10.69254190        4.03953630        0.73790880
     11.99650350       -0.11374769        0.00000000
     11.97780752        4.04699860        2.95163515
     11.98754405        1.96692976        1.47581756
     13.28105339       -0.10684015        2.21372635
     13.27242880        1.97412531        3.68954391
     13.26302841        4.05447091        0.73790880
     14.56550870       -0.09998521        0.00000000
     14.54818667        4.06193696        2.95163515
     14.55723303        1.98128957        1.47581756
     15.84985537       -0.09319915        2.21372635
     15.84194013        1.98840122        3.68954391
     15.83326442        4.06937295        0.73790880
     17.13407935       -0.08649949        0.00000000
     17.11824375        4.07676136        2.95163515
     17.12653475        1.99544401        1.47581756
     18.41817040       -0.07990001        2.21372635
     18.41100157        2.00239913        3.68954391
     18.40310549        4.08407964        0.73790880
     19.70211575       -0.07341699        0.00000000
     19.68783431        4.09131027        2.95163515
     19.69532779        2.00925031        1.47581756
     20.98590773       -0.06706421        2.21372635
     20.97950064        2.01597877        3.68954391
     20.97241488        4.09843069        0.73790880
     22.26953739       -0.06085419        0.00000000
     22.25683184        4.10542338        2.95163515
     22.26350989        2.02256949        1.47581756
     23.55299707       -0.05480071        2.21372635
     23.54734533        2.02900742        3.68954391
     23.54107499        4.11226956        0.73790880
     24.83628164       -0.04891503        0.00000000
     24.82513281        4.11895294        2.95163515
     24.83100055        2.03527880        1.47581756
     26.11938728       -0.04320466        2.21372635
     26.11446661        2.04137111        3.68954391
     26.10899637        4.12545974        0.73790880
     27.40231143       -0.03768089        0.00000000
     27.39265798        4.13177370        2.95163515
     27.39774224        2.04727432        1.47581756
     28.68505154       -0.03234996        2.21372635
     28.68082104        2.05297842        3.68954391
     28.67611382        4.13788479        0.73790880
     29.96761016       -0.02721690        0.00000000
     29.95936005        4.14378049        2.95163515
     29.96370557        2.05847590        1.47581756
     31.24998601       -0.02228920        2.21372635
     31.24639328        2.06375924        3.68954391
     31.24239667        4.14945329        0.73790880
     32.53218164       -0.01756939        0.00000000
     32.52522113        4.15489567        2.95163515
     32.52888671        2.06882218        1.47581756
     33.81420218       -0.01305995        2.21372635
     33.81118715        2.07366221        3.68954391
     33.80783854        4.16010137        0.73790880
     35.09605018       -0.00876340        0.00000000
     35.09025018        4.16506663        2.95163515
     35.09330099        2.07827559        1.47581756
     36.37773074       -0.00468225        2.21372635
     36.37523206        2.08265979        3.68954391
     36.37246115        4.16978769        0.73790880
     37.65925027       -0.00081398        0.00000000
     37.65447658        4.17426207        2.95163515
     37.65698548        2.08681483        1.47581756
     38.94061514        0.00283890        2.21372635
     38.93856891        2.09074071        3.68954391
     38.93630413        4.17849099        0.73790880
     40.22183304        0.00627890        0.00000000
     40.21795146        4.18247197        2.95163515
     40.21998747        2.09443617        1.47581756
     41.50290906        0.00950600        2.21372635
     41.50125265        2.09790371        3.68954391
     41.49942753        4.18620749        0.73790880
     42.78385217        0.01252273        0.00000000
     42.78073872        4.18969883        2.95163515
     42.78236957        2.10114584        1.47581756
     44.06467002        0.01533032        2.21372635
     44.06334846        2.10416132        3.68954391
     44.06189655        4.19294723        0.73790880
     45.34537156        0.01793255        0.00000000
     45.34291123        4.19595644        2.95163515
     45.34419699        2.10695514        1.47581756
     46.62596319        0.02032940        2.21372635
     46.62492410        2.10952856        3.68954391
     46.62379042        4.19872647        0.73790880
     47.90645384        0.02252338        0.00000000
     47.90454565        4.20126232        2.95163515
     47.90554128        2.11188533        1.47581756
     49.18685376        0.02451825        2.21372635
     49.18605495        2.11402547        3.68954391
     49.18518712        4.20356525        0.73790880
     50.46716932        0.02631526        0.00000000
     50.46572507        4.20563901        2.95163515
     50.46647659        2.11595397        1.47581756
     51.74740947        0.02791692        2.21372635
     51.74681388        2.11767209        3.68954391
     51.74616972        4.20748737        0.73790880
     53.02758316        0.02932572        0.00000000
     53.02653256        4.20911031        2.95163515
     53.02707831        2.11918107        1.47581756
     54.30769806        0.03054168        2.21372635
     54.30727756        2.12048594        3.68954391
     54.30682384        4.21051160        0.73790880
     55.58776311        0.03156729        0.00000000
     55.58705249        4.21169500        2.95163515
     55.58742058        2.12158544        1.47581756
     56.86778726        0.03240506        2.21372635
     56.86751886        2.12248332        3.68954391
     56.86723001        4.21265925        0.73790880
     58.14777691        0.03305624        0.00000000
     58.14736664        4.21340811        2.95163515
     58.14757880        2.12318083        1.47581756
     59.42774227        0.03351958        2.21372635
     59.42761190        2.12367673        3.68954391
     59.42747131        4.21394158        0.73790880
     60.70769101        0.03379759        0.00000000
     60.70755681        4.21426091        2.95163515
     60.70762711        2.12397477        1.47581756
     61.98763209        0.03389026        2.21372635
     61.98763209        2.12407370        3.68954391
     61.98763209        4.21436735        0.73790880
     63.26757317        0.03379759        0.00000000
     63.26770737        4.21426091        2.95163515
     63.26763707        2.12397477        1.47581756
     64.54752191        0.03351958        2.21372635
     64.54765228        2.12367673        3.68954391
     64.54779287        4.21394158        0.73790880
     65.82748727        0.03305624        0.00000000
     65.82789754        4.21340811        2.95163515
     65.82768538        2.12318083        1.47581756
     67.10747692        0.03240506        2.21372635
     67.10774532        2.12248332        3.68954391
     67.10803417        4.21265925        0.73790880
     68.38750107        0.03156729        0.00000000
     68.38821169        4.21169500        2.95163515
     68.38784360        2.12158544        1.47581756
     69.66756612        0.03054168        2.21372635
     69.66798662        2.12048594        3.68954391
     69.66844034        4.21051160        0.73790880
     70.94768102        0.02932572        0.00000000
     70.94873161        4.20911031        2.95163515
     70.94818587        2.11918107        1.47581756
     72.22785471        0.02791692        2.21372635
     72.22845030        2.11767209        3.68954391
     72.22909446        4.20748737        0.73790880
     73.50809486        0.02631526        0.00000000
     73.50953911        4.20563901        2.95163515
     73.50878759        2.11595397        1.47581756
     74.78841042        0.02451825        2.21372635
     74.78920923        2.11402547        3.68954391
     74.79007706        4.20356525        0.73790880
     76.06881033        0.02252338        0.00000000
     76.07071853        4.20126232        2.95163515
     76.06972289        2.11188533        1.47581756
     77.34930099        0.02032940        2.21372635
     77.35034008        2.10952856        3.68954391
     77.35147375        4.19872647        0.73790880
     78.62989262        0.01793255        0.00000000
     78.63235295        4.19595644        2.95163515
     78.63106719        2.10695514        1.47581756
     79.91059416        0.01533032        2.21372635
     79.91191571        2.10416132        3.68954391
     79.91336763        4.19294723        0.73790880
     81.19141201        0.01252273        0.00000000
     81.19452545        4.18969883        2.95163515
     81.19289460        2.10114584        1.47581756
     82.47235512        0.00950600        2.21372635
     82.47401153        2.09790371        3.68954391
     82.47583665        4.18620749        0.73790880
     83.75343114        0.00627890        0.00000000
     83.75731272        4.18247197        2.95163515
     83.75527671        2.09443617        1.47581756
     85.03464904        0.00283890        2.21372635
     85.03669527        2.09074071        3.68954391
     85.03896005        4.17849099        0.73790880
     86.31601391       -0.00081398        0.00000000
     86.32078760        4.17426207        2.95163515
     86.31827870        2.08681483        1.47581756
     87.59753344       -0.00468225        2.21372635
     87.60003211        2.08265979        3.68954391
     87.60280303        4.16978769        0.73790880
     88.87921400       -0.00876340        0.00000000
     88.88501400        4.16506663        2.95163515
     88.88196319        2.07827559        1.47581756
     90.16106200       -0.01305995        2.21372635
     90.16407703        2.07366221        3.68954391
     90.16742564        4.16010137        0.73790880
     91.44308254       -0.01756939        0.00000000
     91.45004304        4.15489567        2.95163515
     91.44637747        2.06882218        1.47581756
     92.72527817       -0.02228920        2.21372635
     92.72887090        2.06375924        3.68954391
     92.73286750        4.14945329        0.73790880
     94.00765402       -0.02721690        0.00000000
     94.01590413        4.14378049        2.95163515
     94.01155860        2.05847590        1.47581756
     95.29021264       -0.03234996        2.21372635
     95.29444314        2.05297842        3.68954391
     95.29915036        4.13788479        0.73790880
     96.57295275       -0.03768089        0.00000000
     96.58260620        4.13177370        2.95163515
     96.57752194        2.04727432        1.47581756
     97.85587690       -0.04320466        2.21372635
     97.86079756        2.04137111        3.68954391
     97.86626781        4.12545974        0.73790880
     99.13898254       -0.04891503        0.00000000
     99.15013137        4.11895294        2.95163515
     99.14426363        2.03527880        1.47581756
    100.42226711       -0.05480071        2.21372635
    100.42791885        2.02900742        3.68954391
    100.43418919        4.11226956        0.73790880
    101.70572679       -0.06085419        0.00000000
    101.71843233        4.10542338        2.95163515
    101.71175429        2.02256949        1.47581756
    102.98935645       -0.06706421        2.21372635
    102.99576354        2.01597877        3.68954391
    103.00284930        4.09843069        0.73790880
    104.27314843       -0.07341699        0.00000000
    104.28742987        4.09131027        2.95163515
    104.27993639        2.00925031        1.47581756
    105.55709378       -0.07990001        2.21372635
    105.56426261        2.00239913        3.68954391
    105.57215869        4.08407964        0.73790880
    106.84118483       -0.08649949        0.00000000
    106.85702043        4.07676136        2.95163515
    106.84872943        1.99544401        1.47581756
    108.12540880       -0.09319915        2.21372635
    108.13332405        1.98840122        3.68954391
    108.14199976        4.06937295        0.73790880
    109.40975548       -0.09998521        0.00000000
    109.42707750        4.06193696        2.95163515
    109.41803114        1.98128957        1.47581756
    110.69421079       -0.10684015        2.21372635
    110.70283538        1.97412531        3.68954391
    110.71223577        4.05447091        0.73790880
    111.97876068       -0.11374769        0.00000000
    111.99745666        4.04699860        2.95163515
    111.98772013        1.96692976        1.47581756
    113.26339109       -0.12069029        2.21372635
    113.27267134        1.95972042        3.68954391
    113.28272228        4.03953630        0.73790880
    114.54808796       -0.12765293        0.00000000
    114.56801346        4.03210532        2.95163515
    114.55766856        1.95251359        1.47581756
    115.83283467       -0.13461932        2.21372635
    115.84269901        1.94532680        3.68954391
    115.85331232        4.02472066        0.73790880
    117.11761845       -0.14157194        0.00000000
    117.13860222        4.01740113        2.95163515
    117.12774352        1.93817757        1.47581756
    118.40242268       -0.14849826        2.21372635
    118.41278804        1.93107969        3.68954391
    118.42386657        4.01016049        0.73790880
    119.68723330       -0.15538325        0.00000000
    119.70908874        4.00301252        2.95163515
    119.69781593        1.92404818        1.47581756
    120.97203626       -0.16221190        2.21372635
    120.98281444        1.91709681        3.68954391
    120.99425595        3.99596973        0.73790880
    122.25681876       -0.16897417        0.00000000
    122.27935542        3.98904216        2.95163515
    122.26776820        1.91023561        1.47581756
    123.54156803       -0.17565755        2.21372635
    123.55266701        1.90347584        3.68954391
    123.56437437        3.98223982        0.73790880
    124.82627257       -0.18225202        0.00000000
    124.84930257        3.97557021        2.95163515
    124.83749808        1.89682628        1.47581756
    126.11092087       -0.18874881        2.21372635
    126.12225247        1.89029567        3.68954391
    126.13413236        3.96903836        0.73790880
     -0.88640525        6.05401611        0.00000000
     -0.91271484       10.21020913        2.95163515
     -0.89930890        8.13221030        1.47581756
      0.39858559        6.06067068        2.21372635
      0.38570622        8.13881228        3.68954391
      0.37228366       10.21671844        0.73790880
      1.68369145        6.06747929        0.00000000
      1.65744192       10.22341810        2.95163515
      1.67085937        8.14558707        1.47581756
      2.96890083        6.07443567        2.21372635
      2.95614288        8.15253092        3.68954391
      2.94275483       10.23030685        0.73790880
      4.25420608        6.08153230        0.00000000
      4.22821473       10.23738345        2.95163515
      4.24154654        8.15964133        1.47581756
      5.53959312        6.08876041        2.21372635
      5.52706267        8.16690827        3.68954391
      5.51381521       10.24464412        0.73790880
      6.82504918        6.09610875        0.00000000
      6.79954478       10.25208012        2.95163515
      6.81267594        8.17432423        1.47581756
      8.11056020        6.10356603        2.21372635
      8.09837483        8.18187919        3.68954391
      8.08539194       10.25968642        0.73790880
      9.39610828        6.11111849        0.00000000
      9.37134134       10.26745052        2.95163515
      9.38414275        8.18955938        1.47581756
     10.68167553        6.11874734        2.21372635
     10.66996179        8.19735102        3.68954391
     10.65737766       10.27536112        0.73790880
     11.96724534        6.12643754        0.00000000
     11.94348171       10.28340197        2.95163515
     11.95581405        8.20523783        1.47581756
     13.25279598        6.13416908        2.21372635
     13.24167783        8.21319853        3.68954391
     13.22963305       10.29155551        0.73790880
     14.53830700        6.14192190        0.00000000
     14.51580996       10.29980298        2.95163515
     14.52753265        8.22121558        1.47581756
     15.82375922        6.14967346        2.21372635
     15.81335425        8.22926519        3.68954391
     15.80198814       10.30812183        0.73790880
     17.10913093        6.15740374        0.00000000
     17.08814460       10.31648826        2.95163515
     17.09912216        8.23732482        1.47581756
     18.39440166        6.16508769        2.21372635
     18.38481083        8.24536816        3.68954391
     18.37425121       10.32487473        0.73790880
     19.67955225        6.17270401        0.00000000
     19.66028241       10.33325494        2.95163515
     19.67039853        8.25337144        1.47581756
     20.96456481        6.18022892        2.21372635
     20.95586226        8.26130834        3.68954391
     20.94621264       10.34160134        0.73790880
     22.24942017        6.18764112        0.00000000
     22.23201634       10.34988513        2.95163515
     22.24118157        8.26915258        1.47581756
     23.53410298        6.19491808        2.21372635
     23.52633472        8.27688036        3.68954391
     23.51766923       10.35807499        0.73790880
     24.81859791        6.20204101        0.00000000
     24.80314701       10.36614463        2.95163515
     24.81130510        8.28446537        1.47581756
     26.10289602        6.20899112        2.21372635
     26.09607482        8.29188759        3.68954391
     26.08842925       10.37406651        0.73790880
     27.38698451        6.21574964        0.00000000
     27.37349933       10.38181307        2.95163515
     27.38063238        8.29912448        1.47581756
     28.67085701        6.22230278        2.21372635
     28.66496499        8.30615724        3.68954391
     28.65833807       10.38936177        0.73790880
     29.95450712        6.22863552        0.00000000
     29.94293524       10.39669007        2.95163515
     29.94906371        8.31296710        1.47581756
     31.23793101        6.23473659        2.21372635
     31.23292215        8.31953903        3.68954391
     31.22727936       10.40377793        0.73790880
     32.52112867        6.24059723        0.00000000
     32.51136274       10.41060783        2.95163515
     32.51653648        8.32586050        1.47581756
     33.80410011        6.24620866        2.21372635
     33.79990668        8.33192025        3.68954391
     33.79518156       10.41716473        0.73790880
     35.08684661        6.25156338        0.00000000
     35.07873582       10.42343862        2.95163515
     35.08303150        8.33770950        1.47581756
     36.36937327        6.25665888        2.21372635
     36.36591603        8.34322201        3.68954391
     36.36202550       10.42941697        0.73790880
     37.65168522        6.26149015        0.00000000
     37.64505318       10.43509602        2.95163515
     37.64856411        8.34845275        1.47581756
     38.93378883        6.26605719        2.21372635
     38.93098086        8.35339923        3.68954391
     38.92782780       10.44046702        0.73790880
     40.21569306        6.27035749        0.00000000
     40.21035446       10.44552996        2.95163515
     40.21317649        8.35805768        1.47581756
     41.49740686        6.27439357        2.21372635
     41.49515869        8.36242937        3.68954391
     41.49264340       10.45028108        0.73790880
     42.77893789        6.27816416        0.00000000
     42.77470611       10.45472289        2.95163515
     42.77693895        8.36651553        1.47581756
     44.06029765        6.28167303        2.21372635
     44.05852621        8.37031618        3.68954391
     44.05655283       10.45885414        0.73790880
     45.34149637        6.28492142        0.00000000
     45.33819761       10.46267733        2.95163515
     45.33993326        8.37383507        1.47581756
     46.62254556        6.28791185        2.21372635
     46.62117289        8.37707470        3.68954391
     46.61965323       10.46619747        0.73790880
     47.90345543        6.29064932        0.00000000
     47.90093375       10.46941581        2.95163515
     47.90225786        8.38003757        1.47581756
     49.18423877        6.29313508        2.21372635
     49.18319968        8.38272746        3.68954391
     49.18205451       10.47233611        0.73790880
     50.46490581        6.29537164        0.00000000
     50.46302701       10.47496463        2.95163515
     50.46401114        8.38514810        1.47581756
     51.74547060        6.29736401        2.21372635
     51.74470630        8.38730326        3.68954391
     51.74386914       10.47730262        0.73790880
     53.02594081        6.29911468        0.00000000
     53.02459497       10.47935635        2.95163515
     53.02529792        8.38919544        1.47581756
     54.30633177        6.30062492        2.21372635
     54.30579881        8.39082841        3.68954391
     54.30521727       10.48112706        0.73790880
     55.58665372        6.30189974        0.00000000
     55.58575266       10.48261977        2.95163515
     55.58622173        8.39220591        1.47581756
     56.86691816        6.30293787        2.21372635
     56.86658202        8.39332920        3.68954391
     56.86621520       10.48383698        0.73790880
     58.14713658        6.30374434        0.00000000
     58.14662023       10.48478120        2.95163515
     58.14688863        8.39419953        1.47581756
     59.42732050        6.30431913        2.21372635
     59.42715818        8.39482065        3.68954391
     59.42698180       10.48545367        0.73790880
     60.70748268        6.30466476        0.00000000
     60.70731397       10.48585690        2.95163515
     60.70740216        8.39519258        1.47581756
     61.98763209        6.30477871        2.21372635
     61.98763209        8.39531655        3.68954391
     61.98763209       10.48599089        0.73790880
     63.26778150        6.30466476        0.00000000
     63.26795020       10.48585690        2.95163515
     63.26786329        8.39519258        1.47581756
     64.54794368        6.30431913        2.21372635
     64.54810600        8.39482065        3.68954391
     64.54828238       10.48545367        0.73790880
     65.82812760        6.30374434        0.00000000
     65.82864395       10.48478120        2.95163515
     65.82837555        8.39419953        1.47581756
     67.10834602        6.30293787        2.21372635
     67.10868216        8.39332920        3.68954391
     67.10904897       10.48383698        0.73790880
     68.38861046        6.30189974        0.00000000
     68.38951151       10.48261977        2.95163515
     68.38904245        8.39220591        1.47581756
     69.66893241        6.30062492        2.21372635
     69.66946537        8.39082841        3.68954391
     69.67004691       10.48112706        0.73790880
     70.94932337        6.29911468        0.00000000
     70.95066921       10.47935635        2.95163515
     70.94996626        8.38919544        1.47581756
     72.22979358        6.29736401        2.21372635
     72.23055788        8.38730326        3.68954391
     72.23139504       10.47730262        0.73790880
     73.51035837        6.29537164        0.00000000
     73.51223717       10.47496463        2.95163515
     73.51125304        8.38514810        1.47581756
     74.79102540        6.29313508        2.21372635
     74.79206450        8.38272746        3.68954391
     74.79320967       10.47233611        0.73790880
     76.07180875        6.29064932        0.00000000
     76.07433043       10.46941581        2.95163515
     76.07300632        8.38003757        1.47581756
     77.35271862        6.28791185        2.21372635
     77.35409129        8.37707470        3.68954391
     77.35561095       10.46619747        0.73790880
     78.63376781        6.28492142        0.00000000
     78.63706657       10.46267733        2.95163515
     78.63533092        8.37383507        1.47581756
     79.91496653        6.28167303        2.21372635
     79.91673797        8.37031618        3.68954391
     79.91871135       10.45885414        0.73790880
     81.19632629        6.27816416        0.00000000
     81.20055807       10.45472289        2.95163515
     81.19832523        8.36651553        1.47581756
     82.47785732        6.27439357        2.21372635
     82.48010549        8.36242937        3.68954391
     82.48262078       10.45028108        0.73790880
     83.75957111        6.27035749        0.00000000
     83.76490972       10.44552996        2.95163515
     83.76208768        8.35805768        1.47581756
     85.04147535        6.26605719        2.21372635
     85.04428332        8.35339923        3.68954391
     85.04743638       10.44046702        0.73790880
     86.32357896        6.26149015        0.00000000
     86.33021100       10.43509602        2.95163515
     86.32670007        8.34845275        1.47581756
     87.60589090        6.25665888        2.21372635
     87.60934815        8.34322201        3.68954391
     87.61323868       10.42941697        0.73790880
     88.88841757        6.25156338        0.00000000
     88.89652836       10.42343862        2.95163515
     88.89223268        8.33770950        1.47581756
     90.17116406        6.24620866        2.21372635
     90.17535750        8.33192025        3.68954391
     90.18008262       10.41716473        0.73790880
     91.45413551        6.24059723        0.00000000
     91.46390143       10.41060783        2.95163515
     91.45872770        8.32586050        1.47581756
     92.73733317        6.23473659        2.21372635
     92.74234203        8.31953903        3.68954391
     92.74798482       10.40377793        0.73790880
     94.02075706        6.22863552        0.00000000
     94.03232893       10.39669007        2.95163515
     94.02620047        8.31296710        1.47581756
     95.30440717        6.22230278        2.21372635
     95.31029919        8.30615724        3.68954391
     95.31692611       10.38936177        0.73790880
     96.58827967        6.21574964        0.00000000
     96.60176485       10.38181307        2.95163515
     96.59463180        8.29912448        1.47581756
     97.87236816        6.20899112        2.21372635
     97.87918936        8.29188759        3.68954391
     97.88683493       10.37406651        0.73790880
     99.15666627        6.20204101        0.00000000
     99.17211716       10.36614463        2.95163515
     99.16395908        8.28446662        1.47581756
    100.44116120        6.19491808        2.21372635
    100.44892946        8.27688036        3.68954391
    100.45759495       10.35807499        0.73790880
    101.72584401        6.18764112        0.00000000
    101.74324784       10.34988513        2.95163515
    101.73408261        8.26915258        1.47581756
    103.01069936        6.18022892        2.21372635
    103.01940192        8.26130834        3.68954391
    103.02905154       10.34160134        0.73790880
    104.29571192        6.17270401        0.00000000
    104.31498177       10.33325494        2.95163515
    104.30486564        8.25337144        1.47581756
    105.58086252        6.16508769        2.21372635
    105.59045335        8.24536816        3.68954391
    105.60101297       10.32487473        0.73790880
    106.86613325        6.15740374        0.00000000
    106.88711958       10.31648826        2.95163515
    106.87614202        8.23732482        1.47581756
    108.15150496        6.14967346        2.21372635
    108.16190993        8.22926519        3.68954391
    108.17327604       10.30812183        0.73790880
    109.43695718        6.14192190        0.00000000
    109.45945422       10.29980298        2.95163515
    109.44773153        8.22121558        1.47581756